QuantityOfClients = 7;
ClientsDemand = [0,2,2,2,2,2,2,0];
Distance = [
[0.0,13.8,16.6,12.9,3.1,13.2,8.9,0.0],
[13.8,0.0,19.2,7.9,16.6,1.3,18.7,0.0],
[16.6,19.2,0.0,11.4,18.5,19.9,10.1,0.0],
[12.9,7.9,11.4,0.0,15.9,8.8,13.6,0.0],
[3.1,16.6,18.5,15.9,0.0,16.0,9.6,0.0],
[13.2,1.3,19.9,8.8,16.0,0.0,18.7,0.0],
[8.9,18.7,10.1,13.6,9.6,18.7,0.0,0.0],
[0.0,0.0,0.0,0.0,0.0,0.0,0.0,0.0]
];